Route #1: 12 45 52 22 54 55 15 56 58
Route #2: 13 28 5 21 25 63
Route #3: 65 37 23 8 32 51
Route #4: 27 10 59 24 29 7 38
Route #5: 20 19 1 49 35 11
Route #6: 46 50 14 4 39 53
Route #7: 44 42 36 6 34 40 64 60
Route #8: 3 57 30 61 62 9
Route #9: 31 18 26 2 66 41 16 43 17
Route #10: 48 33 47
Cost 1100